p cnf 245 2910
1 2 3 4 5 6 7 0
8 9 10 11 12 13 14 0
15 16 17 18 19 20 21 0
22 23 24 25 26 27 28 0
29 30 31 32 33 34 35 0
36 37 38 39 40 41 42 0
43 44 45 46 47 48 49 0
50 51 52 53 54 55 56 0
57 58 59 60 61 62 63 0
64 65 66 67 68 69 70 0
71 72 73 74 75 76 77 0
78 79 80 81 82 83 84 0
85 86 87 88 89 90 91 0
92 93 94 95 96 97 98 0
99 100 101 102 103 104 105 0
106 107 108 109 110 111 112 0
113 114 115 116 117 118 119 0
120 121 122 123 124 125 126 0
127 128 129 130 131 132 133 0
134 135 136 137 138 139 140 0
141 142 143 144 145 146 147 0
148 149 150 151 152 153 154 0
155 156 157 158 159 160 161 0
162 163 164 165 166 167 168 0
169 170 171 172 173 174 175 0
176 177 178 179 180 181 182 0
183 184 185 186 187 188 189 0
190 191 192 193 194 195 196 0
197 198 199 200 201 202 203 0
204 205 206 207 208 209 210 0
211 212 213 214 215 216 217 0
218 219 220 221 222 223 224 0
225 226 227 228 229 230 231 0
232 233 234 235 236 237 238 0
239 240 241 242 243 244 245 0
-1 -2 0
-1 -3 0
-1 -4 0
-1 -5 0
-1 -6 0
-1 -7 0
-2 -3 0
-2 -4 0
-2 -5 0
-2 -6 0
-2 -7 0
-3 -4 0
-3 -5 0
-3 -6 0
-3 -7 0
-4 -5 0
-4 -6 0
-4 -7 0
-5 -6 0
-5 -7 0
-6 -7 0
-8 -9 0
-8 -10 0
-8 -11 0
-8 -12 0
-8 -13 0
-8 -14 0
-9 -10 0
-9 -11 0
-9 -12 0
-9 -13 0
-9 -14 0
-10 -11 0
-10 -12 0
-10 -13 0
-10 -14 0
-11 -12 0
-11 -13 0
-11 -14 0
-12 -13 0
-12 -14 0
-13 -14 0
-15 -16 0
-15 -17 0
-15 -18 0
-15 -19 0
-15 -20 0
-15 -21 0
-16 -17 0
-16 -18 0
-16 -19 0
-16 -20 0
-16 -21 0
-17 -18 0
-17 -19 0
-17 -20 0
-17 -21 0
-18 -19 0
-18 -20 0
-18 -21 0
-19 -20 0
-19 -21 0
-20 -21 0
-22 -23 0
-22 -24 0
-22 -25 0
-22 -26 0
-22 -27 0
-22 -28 0
-23 -24 0
-23 -25 0
-23 -26 0
-23 -27 0
-23 -28 0
-24 -25 0
-24 -26 0
-24 -27 0
-24 -28 0
-25 -26 0
-25 -27 0
-25 -28 0
-26 -27 0
-26 -28 0
-27 -28 0
-29 -30 0
-29 -31 0
-29 -32 0
-29 -33 0
-29 -34 0
-29 -35 0
-30 -31 0
-30 -32 0
-30 -33 0
-30 -34 0
-30 -35 0
-31 -32 0
-31 -33 0
-31 -34 0
-31 -35 0
-32 -33 0
-32 -34 0
-32 -35 0
-33 -34 0
-33 -35 0
-34 -35 0
-36 -37 0
-36 -38 0
-36 -39 0
-36 -40 0
-36 -41 0
-36 -42 0
-37 -38 0
-37 -39 0
-37 -40 0
-37 -41 0
-37 -42 0
-38 -39 0
-38 -40 0
-38 -41 0
-38 -42 0
-39 -40 0
-39 -41 0
-39 -42 0
-40 -41 0
-40 -42 0
-41 -42 0
-43 -44 0
-43 -45 0
-43 -46 0
-43 -47 0
-43 -48 0
-43 -49 0
-44 -45 0
-44 -46 0
-44 -47 0
-44 -48 0
-44 -49 0
-45 -46 0
-45 -47 0
-45 -48 0
-45 -49 0
-46 -47 0
-46 -48 0
-46 -49 0
-47 -48 0
-47 -49 0
-48 -49 0
-50 -51 0
-50 -52 0
-50 -53 0
-50 -54 0
-50 -55 0
-50 -56 0
-51 -52 0
-51 -53 0
-51 -54 0
-51 -55 0
-51 -56 0
-52 -53 0
-52 -54 0
-52 -55 0
-52 -56 0
-53 -54 0
-53 -55 0
-53 -56 0
-54 -55 0
-54 -56 0
-55 -56 0
-57 -58 0
-57 -59 0
-57 -60 0
-57 -61 0
-57 -62 0
-57 -63 0
-58 -59 0
-58 -60 0
-58 -61 0
-58 -62 0
-58 -63 0
-59 -60 0
-59 -61 0
-59 -62 0
-59 -63 0
-60 -61 0
-60 -62 0
-60 -63 0
-61 -62 0
-61 -63 0
-62 -63 0
-64 -65 0
-64 -66 0
-64 -67 0
-64 -68 0
-64 -69 0
-64 -70 0
-65 -66 0
-65 -67 0
-65 -68 0
-65 -69 0
-65 -70 0
-66 -67 0
-66 -68 0
-66 -69 0
-66 -70 0
-67 -68 0
-67 -69 0
-67 -70 0
-68 -69 0
-68 -70 0
-69 -70 0
-71 -72 0
-71 -73 0
-71 -74 0
-71 -75 0
-71 -76 0
-71 -77 0
-72 -73 0
-72 -74 0
-72 -75 0
-72 -76 0
-72 -77 0
-73 -74 0
-73 -75 0
-73 -76 0
-73 -77 0
-74 -75 0
-74 -76 0
-74 -77 0
-75 -76 0
-75 -77 0
-76 -77 0
-78 -79 0
-78 -80 0
-78 -81 0
-78 -82 0
-78 -83 0
-78 -84 0
-79 -80 0
-79 -81 0
-79 -82 0
-79 -83 0
-79 -84 0
-80 -81 0
-80 -82 0
-80 -83 0
-80 -84 0
-81 -82 0
-81 -83 0
-81 -84 0
-82 -83 0
-82 -84 0
-83 -84 0
-85 -86 0
-85 -87 0
-85 -88 0
-85 -89 0
-85 -90 0
-85 -91 0
-86 -87 0
-86 -88 0
-86 -89 0
-86 -90 0
-86 -91 0
-87 -88 0
-87 -89 0
-87 -90 0
-87 -91 0
-88 -89 0
-88 -90 0
-88 -91 0
-89 -90 0
-89 -91 0
-90 -91 0
-92 -93 0
-92 -94 0
-92 -95 0
-92 -96 0
-92 -97 0
-92 -98 0
-93 -94 0
-93 -95 0
-93 -96 0
-93 -97 0
-93 -98 0
-94 -95 0
-94 -96 0
-94 -97 0
-94 -98 0
-95 -96 0
-95 -97 0
-95 -98 0
-96 -97 0
-96 -98 0
-97 -98 0
-99 -100 0
-99 -101 0
-99 -102 0
-99 -103 0
-99 -104 0
-99 -105 0
-100 -101 0
-100 -102 0
-100 -103 0
-100 -104 0
-100 -105 0
-101 -102 0
-101 -103 0
-101 -104 0
-101 -105 0
-102 -103 0
-102 -104 0
-102 -105 0
-103 -104 0
-103 -105 0
-104 -105 0
-106 -107 0
-106 -108 0
-106 -109 0
-106 -110 0
-106 -111 0
-106 -112 0
-107 -108 0
-107 -109 0
-107 -110 0
-107 -111 0
-107 -112 0
-108 -109 0
-108 -110 0
-108 -111 0
-108 -112 0
-109 -110 0
-109 -111 0
-109 -112 0
-110 -111 0
-110 -112 0
-111 -112 0
-113 -114 0
-113 -115 0
-113 -116 0
-113 -117 0
-113 -118 0
-113 -119 0
-114 -115 0
-114 -116 0
-114 -117 0
-114 -118 0
-114 -119 0
-115 -116 0
-115 -117 0
-115 -118 0
-115 -119 0
-116 -117 0
-116 -118 0
-116 -119 0
-117 -118 0
-117 -119 0
-118 -119 0
-120 -121 0
-120 -122 0
-120 -123 0
-120 -124 0
-120 -125 0
-120 -126 0
-121 -122 0
-121 -123 0
-121 -124 0
-121 -125 0
-121 -126 0
-122 -123 0
-122 -124 0
-122 -125 0
-122 -126 0
-123 -124 0
-123 -125 0
-123 -126 0
-124 -125 0
-124 -126 0
-125 -126 0
-127 -128 0
-127 -129 0
-127 -130 0
-127 -131 0
-127 -132 0
-127 -133 0
-128 -129 0
-128 -130 0
-128 -131 0
-128 -132 0
-128 -133 0
-129 -130 0
-129 -131 0
-129 -132 0
-129 -133 0
-130 -131 0
-130 -132 0
-130 -133 0
-131 -132 0
-131 -133 0
-132 -133 0
-134 -135 0
-134 -136 0
-134 -137 0
-134 -138 0
-134 -139 0
-134 -140 0
-135 -136 0
-135 -137 0
-135 -138 0
-135 -139 0
-135 -140 0
-136 -137 0
-136 -138 0
-136 -139 0
-136 -140 0
-137 -138 0
-137 -139 0
-137 -140 0
-138 -139 0
-138 -140 0
-139 -140 0
-141 -142 0
-141 -143 0
-141 -144 0
-141 -145 0
-141 -146 0
-141 -147 0
-142 -143 0
-142 -144 0
-142 -145 0
-142 -146 0
-142 -147 0
-143 -144 0
-143 -145 0
-143 -146 0
-143 -147 0
-144 -145 0
-144 -146 0
-144 -147 0
-145 -146 0
-145 -147 0
-146 -147 0
-148 -149 0
-148 -150 0
-148 -151 0
-148 -152 0
-148 -153 0
-148 -154 0
-149 -150 0
-149 -151 0
-149 -152 0
-149 -153 0
-149 -154 0
-150 -151 0
-150 -152 0
-150 -153 0
-150 -154 0
-151 -152 0
-151 -153 0
-151 -154 0
-152 -153 0
-152 -154 0
-153 -154 0
-155 -156 0
-155 -157 0
-155 -158 0
-155 -159 0
-155 -160 0
-155 -161 0
-156 -157 0
-156 -158 0
-156 -159 0
-156 -160 0
-156 -161 0
-157 -158 0
-157 -159 0
-157 -160 0
-157 -161 0
-158 -159 0
-158 -160 0
-158 -161 0
-159 -160 0
-159 -161 0
-160 -161 0
-162 -163 0
-162 -164 0
-162 -165 0
-162 -166 0
-162 -167 0
-162 -168 0
-163 -164 0
-163 -165 0
-163 -166 0
-163 -167 0
-163 -168 0
-164 -165 0
-164 -166 0
-164 -167 0
-164 -168 0
-165 -166 0
-165 -167 0
-165 -168 0
-166 -167 0
-166 -168 0
-167 -168 0
-169 -170 0
-169 -171 0
-169 -172 0
-169 -173 0
-169 -174 0
-169 -175 0
-170 -171 0
-170 -172 0
-170 -173 0
-170 -174 0
-170 -175 0
-171 -172 0
-171 -173 0
-171 -174 0
-171 -175 0
-172 -173 0
-172 -174 0
-172 -175 0
-173 -174 0
-173 -175 0
-174 -175 0
-176 -177 0
-176 -178 0
-176 -179 0
-176 -180 0
-176 -181 0
-176 -182 0
-177 -178 0
-177 -179 0
-177 -180 0
-177 -181 0
-177 -182 0
-178 -179 0
-178 -180 0
-178 -181 0
-178 -182 0
-179 -180 0
-179 -181 0
-179 -182 0
-180 -181 0
-180 -182 0
-181 -182 0
-183 -184 0
-183 -185 0
-183 -186 0
-183 -187 0
-183 -188 0
-183 -189 0
-184 -185 0
-184 -186 0
-184 -187 0
-184 -188 0
-184 -189 0
-185 -186 0
-185 -187 0
-185 -188 0
-185 -189 0
-186 -187 0
-186 -188 0
-186 -189 0
-187 -188 0
-187 -189 0
-188 -189 0
-190 -191 0
-190 -192 0
-190 -193 0
-190 -194 0
-190 -195 0
-190 -196 0
-191 -192 0
-191 -193 0
-191 -194 0
-191 -195 0
-191 -196 0
-192 -193 0
-192 -194 0
-192 -195 0
-192 -196 0
-193 -194 0
-193 -195 0
-193 -196 0
-194 -195 0
-194 -196 0
-195 -196 0
-197 -198 0
-197 -199 0
-197 -200 0
-197 -201 0
-197 -202 0
-197 -203 0
-198 -199 0
-198 -200 0
-198 -201 0
-198 -202 0
-198 -203 0
-199 -200 0
-199 -201 0
-199 -202 0
-199 -203 0
-200 -201 0
-200 -202 0
-200 -203 0
-201 -202 0
-201 -203 0
-202 -203 0
-204 -205 0
-204 -206 0
-204 -207 0
-204 -208 0
-204 -209 0
-204 -210 0
-205 -206 0
-205 -207 0
-205 -208 0
-205 -209 0
-205 -210 0
-206 -207 0
-206 -208 0
-206 -209 0
-206 -210 0
-207 -208 0
-207 -209 0
-207 -210 0
-208 -209 0
-208 -210 0
-209 -210 0
-211 -212 0
-211 -213 0
-211 -214 0
-211 -215 0
-211 -216 0
-211 -217 0
-212 -213 0
-212 -214 0
-212 -215 0
-212 -216 0
-212 -217 0
-213 -214 0
-213 -215 0
-213 -216 0
-213 -217 0
-214 -215 0
-214 -216 0
-214 -217 0
-215 -216 0
-215 -217 0
-216 -217 0
-218 -219 0
-218 -220 0
-218 -221 0
-218 -222 0
-218 -223 0
-218 -224 0
-219 -220 0
-219 -221 0
-219 -222 0
-219 -223 0
-219 -224 0
-220 -221 0
-220 -222 0
-220 -223 0
-220 -224 0
-221 -222 0
-221 -223 0
-221 -224 0
-222 -223 0
-222 -224 0
-223 -224 0
-225 -226 0
-225 -227 0
-225 -228 0
-225 -229 0
-225 -230 0
-225 -231 0
-226 -227 0
-226 -228 0
-226 -229 0
-226 -230 0
-226 -231 0
-227 -228 0
-227 -229 0
-227 -230 0
-227 -231 0
-228 -229 0
-228 -230 0
-228 -231 0
-229 -230 0
-229 -231 0
-230 -231 0
-232 -233 0
-232 -234 0
-232 -235 0
-232 -236 0
-232 -237 0
-232 -238 0
-233 -234 0
-233 -235 0
-233 -236 0
-233 -237 0
-233 -238 0
-234 -235 0
-234 -236 0
-234 -237 0
-234 -238 0
-235 -236 0
-235 -237 0
-235 -238 0
-236 -237 0
-236 -238 0
-237 -238 0
-239 -240 0
-239 -241 0
-239 -242 0
-239 -243 0
-239 -244 0
-239 -245 0
-240 -241 0
-240 -242 0
-240 -243 0
-240 -244 0
-240 -245 0
-241 -242 0
-241 -243 0
-241 -244 0
-241 -245 0
-242 -243 0
-242 -244 0
-242 -245 0
-243 -244 0
-243 -245 0
-244 -245 0
-3 -34 0
-4 -33 0
-3 -32 0
-4 -30 0
-2 -36 0
-2 -42 0
-7 -41 0
-3 -36 0
-7 -46 0
-7 -48 0
-7 -43 0
-1 -43 0
-1 -56 0
-6 -56 0
-2 -50 0
-1 -51 0
-2 -62 0
-3 -60 0
-2 -57 0
-7 -60 0
-4 -70 0
-4 -68 0
-2 -67 0
-1 -67 0
-4 -76 0
-1 -77 0
-7 -71 0
-6 -77 0
-1 -80 0
-4 -84 0
-5 -84 0
-7 -78 0
-1 -86 0
-7 -89 0
-6 -85 0
-5 -91 0
-5 -108 0
-6 -107 0
-6 -110 0
-7 -111 0
-4 -115 0
-6 -118 0
-5 -115 0
-6 -113 0
-2 -123 0
-7 -124 0
-3 -126 0
-3 -125 0
-1 -139 0
-6 -137 0
-2 -138 0
-4 -136 0
-6 -142 0
-3 -146 0
-2 -141 0
-7 -147 0
-1 -152 0
-2 -154 0
-7 -151 0
-6 -149 0
-1 -157 0
-3 -160 0
-5 -157 0
-7 -160 0
-3 -167 0
-2 -162 0
-7 -165 0
-2 -163 0
-6 -170 0
-2 -170 0
-3 -170 0
-7 -169 0
-7 -176 0
-2 -177 0
-5 -177 0
-5 -179 0
-6 -184 0
-2 -185 0
-2 -188 0
-1 -185 0
-1 -190 0
-6 -192 0
-1 -194 0
-1 -192 0
-4 -207 0
-2 -208 0
-1 -207 0
-3 -206 0
-5 -215 0
-2 -211 0
-3 -213 0
-7 -215 0
-6 -228 0
-1 -231 0
-5 -226 0
-5 -225 0
-7 -238 0
-4 -233 0
-7 -232 0
-4 -234 0
-4 -243 0
-2 -239 0
-5 -239 0
-5 -243 0
-10 -16 0
-9 -17 0
-12 -20 0
-11 -21 0
-14 -27 0
-11 -28 0
-13 -25 0
-8 -26 0
-9 -33 0
-13 -35 0
-13 -33 0
-8 -30 0
-14 -42 0
-8 -39 0
-11 -42 0
-9 -42 0
-10 -59 0
-11 -63 0
-12 -62 0
-9 -58 0
-13 -67 0
-10 -68 0
-10 -69 0
-11 -70 0
-11 -77 0
-12 -76 0
-11 -74 0
-12 -75 0
-12 -78 0
-14 -84 0
-10 -84 0
-11 -84 0
-11 -94 0
-10 -93 0
-13 -95 0
-12 -96 0
-10 -102 0
-10 -99 0
-12 -100 0
-11 -100 0
-14 -112 0
-12 -106 0
-12 -110 0
-12 -107 0
-11 -118 0
-14 -119 0
-12 -115 0
-11 -119 0
-8 -126 0
-10 -123 0
-9 -120 0
-9 -123 0
-8 -133 0
-9 -129 0
-13 -130 0
-8 -128 0
-14 -140 0
-12 -136 0
-10 -135 0
-9 -139 0
-8 -151 0
-10 -149 0
-9 -153 0
-8 -149 0
-10 -168 0
-12 -165 0
-11 -164 0
-14 -166 0
-10 -174 0
-12 -175 0
-10 -171 0
-10 -172 0
-10 -180 0
-10 -179 0
-14 -181 0
-13 -178 0
-11 -185 0
-10 -189 0
-14 -184 0
-13 -189 0
-8 -192 0
-14 -191 0
-9 -193 0
-9 -196 0
-14 -210 0
-8 -208 0
-11 -204 0
-10 -205 0
-10 -212 0
-8 -212 0
-9 -211 0
-12 -216 0
-9 -223 0
-12 -220 0
-14 -220 0
-8 -223 0
-9 -227 0
-9 -225 0
-8 -229 0
-10 -228 0
-11 -234 0
-10 -237 0
-14 -236 0
-13 -233 0
-14 -241 0
-12 -245 0
-10 -240 0
-14 -243 0
-16 -26 0
-19 -26 0
-17 -26 0
-15 -23 0
-20 -33 0
-15 -30 0
-18 -31 0
-16 -35 0
-15 -36 0
-19 -38 0
-16 -41 0
-17 -37 0
-17 -45 0
-20 -46 0
-20 -48 0
-15 -46 0
-18 -52 0
-21 -52 0
-20 -53 0
-15 -53 0
-17 -57 0
-15 -62 0
-20 -57 0
-19 -57 0
-15 -67 0
-16 -67 0
-20 -68 0
-18 -64 0
-18 -77 0
-20 -76 0
-17 -75 0
-17 -77 0
-21 -91 0
-17 -85 0
-17 -89 0
-19 -85 0
-15 -92 0
-18 -92 0
-21 -92 0
-19 -94 0
-21 -99 0
-16 -104 0
-17 -103 0
-18 -102 0
-17 -108 0
-17 -109 0
-17 -112 0
-21 -107 0
-18 -115 0
-19 -119 0
-18 -116 0
-20 -119 0
-16 -122 0
-20 -125 0
-16 -126 0
-16 -125 0
-20 -129 0
-17 -129 0
-20 -133 0
-18 -129 0
-19 -136 0
-18 -140 0
-15 -135 0
-16 -139 0
-17 -147 0
-15 -147 0
-18 -141 0
-17 -145 0
-21 -150 0
-19 -153 0
-16 -150 0
-16 -148 0
-16 -157 0
-18 -161 0
-19 -161 0
-15 -160 0
-16 -171 0
-15 -175 0
-21 -175 0
-21 -173 0
-19 -181 0
-19 -176 0
-17 -180 0
-19 -178 0
-20 -183 0
-18 -185 0
-18 -189 0
-21 -185 0
-18 -192 0
-16 -194 0
-21 -191 0
-20 -190 0
-19 -200 0
-15 -197 0
-18 -197 0
-15 -198 0
-21 -210 0
-21 -204 0
-19 -207 0
-17 -210 0
-15 -212 0
-17 -215 0
-20 -215 0
-17 -212 0
-15 -220 0
-16 -220 0
-17 -222 0
-18 -221 0
-19 -229 0
-16 -225 0
-21 -227 0
-21 -230 0
-20 -240 0
-21 -240 0
-19 -244 0
-16 -244 0
-24 -38 0
-23 -37 0
-26 -42 0
-26 -40 0
-27 -49 0
-25 -46 0
-22 -45 0
-23 -44 0
-26 -53 0
-22 -53 0
-27 -56 0
-27 -52 0
-26 -59 0
-27 -58 0
-25 -61 0
-22 -58 0
-25 -64 0
-25 -67 0
-24 -70 0
-26 -65 0
-22 -75 0
-27 -71 0
-25 -72 0
-23 -74 0
-25 -90 0
-26 -89 0
-28 -88 0
-24 -90 0
-24 -96 0
-23 -97 0
-25 -95 0
-26 -94 0
-25 -99 0
-26 -100 0
-23 -101 0
-22 -103 0
-25 -111 0
-22 -107 0
-26 -111 0
-26 -107 0
-27 -118 0
-28 -115 0
-25 -113 0
-23 -118 0
-27 -124 0
-26 -123 0
-28 -124 0
-24 -123 0
-26 -128 0
-24 -133 0
-24 -131 0
-27 -127 0
-24 -147 0
-27 -143 0
-22 -141 0
-26 -143 0
-25 -152 0
-24 -150 0
-23 -153 0
-22 -151 0
-25 -156 0
-22 -161 0
-28 -159 0
-24 -161 0
-25 -167 0
-24 -168 0
-28 -164 0
-26 -163 0
-25 -173 0
-22 -170 0
-23 -173 0
-27 -175 0
-25 -181 0
-28 -181 0
-25 -180 0
-22 -182 0
-26 -185 0
-28 -186 0
-24 -188 0
-27 -184 0
-26 -194 0
-23 -191 0
-27 -193 0
-22 -195 0
-23 -199 0
-27 -203 0
-22 -198 0
-25 -202 0
-26 -206 0
-28 -210 0
-22 -208 0
-28 -208 0
-23 -218 0
-26 -220 0
-24 -220 0
-22 -222 0
-24 -231 0
-22 -227 0
-28 -229 0
-28 -230 0
-25 -237 0
-24 -232 0
-28 -235 0
-23 -236 0
-34 -42 0
-29 -38 0
-31 -41 0
-35 -42 0
-33 -48 0
-32 -49 0
-35 -47 0
-35 -45 0
-30 -53 0
-35 -52 0
-31 -53 0
-33 -52 0
-32 -57 0
-30 -60 0
-31 -58 0
-35 -63 0
-33 -69 0
-33 -65 0
-30 -68 0
-35 -64 0
-32 -71 0
-34 -74 0
-35 -76 0
-35 -74 0
-33 -83 0
-34 -78 0
-29 -79 0
-34 -84 0
-30 -86 0
-34 -85 0
-35 -86 0
-34 -87 0
-33 -96 0
-29 -93 0
-35 -94 0
-32 -93 0
-34 -105 0
-34 -104 0
-30 -102 0
-34 -101 0
-32 -114 0
-30 -115 0
-31 -118 0
-30 -119 0
-31 -126 0
-34 -123 0
-33 -121 0
-31 -125 0
-34 -133 0
-30 -132 0
-30 -130 0
-34 -128 0
-29 -140 0
-30 -136 0
-30 -140 0
-35 -138 0
-31 -146 0
-34 -142 0
-29 -143 0
-34 -144 0
-31 -152 0
-29 -154 0
-35 -154 0
-30 -148 0
-34 -158 0
-33 -161 0
-34 -159 0
-31 -156 0
-35 -168 0
-30 -162 0
-29 -165 0
-32 -168 0
-34 -170 0
-29 -170 0
-30 -172 0
-34 -175 0
-33 -178 0
-35 -179 0
-35 -181 0
-30 -180 0
-34 -191 0
-32 -195 0
-34 -192 0
-30 -196 0
-30 -210 0
-33 -206 0
-32 -208 0
-34 -208 0
-29 -220 0
-30 -224 0
-34 -221 0
-35 -224 0
-32 -235 0
-30 -238 0
-31 -234 0
-31 -232 0
-31 -243 0
-34 -240 0
-34 -242 0
-32 -241 0
-41 -46 0
-36 -46 0
-42 -45 0
-42 -43 0
-42 -54 0
-41 -50 0
-42 -55 0
-42 -51 0
-36 -62 0
-39 -61 0
-42 -61 0
-42 -60 0
-40 -69 0
-39 -66 0
-37 -65 0
-38 -65 0
-42 -76 0
-40 -77 0
-36 -74 0
-39 -74 0
-38 -78 0
-42 -81 0
-36 -80 0
-39 -79 0
-36 -90 0
-36 -88 0
-42 -91 0
-36 -91 0
-41 -98 0
-41 -97 0
-39 -93 0
-38 -92 0
-40 -101 0
-40 -99 0
-39 -102 0
-36 -105 0
-38 -107 0
-42 -111 0
-37 -107 0
-40 -106 0
-40 -120 0
-39 -123 0
-41 -122 0
-40 -121 0
-42 -131 0
-41 -133 0
-38 -128 0
-38 -132 0
-40 -139 0
-40 -136 0
-42 -136 0
-38 -139 0
-38 -144 0
-37 -146 0
-42 -146 0
-38 -146 0
-36 -160 0
-36 -158 0
-40 -155 0
-42 -158 0
-41 -168 0
-41 -165 0
-38 -164 0
-37 -163 0
-38 -182 0
-36 -180 0
-37 -176 0
-36 -176 0
-37 -189 0
-41 -189 0
-39 -185 0
-39 -188 0
-39 -190 0
-42 -195 0
-39 -194 0
-36 -195 0
-42 -203 0
-40 -200 0
-37 -202 0
-37 -198 0
-42 -205 0
-36 -206 0
-41 -205 0
-36 -209 0
-41 -214 0
-41 -213 0
-36 -215 0
-41 -216 0
-39 -224 0
-37 -220 0
-39 -221 0
-36 -219 0
-40 -231 0
-36 -229 0
-42 -230 0
-38 -229 0
-40 -238 0
-42 -236 0
-39 -233 0
-38 -234 0
-41 -243 0
-42 -241 0
-36 -245 0
-40 -243 0
-45 -56 0
-45 -50 0
-44 -56 0
-44 -55 0
-49 -58 0
-45 -63 0
-45 -61 0
-48 -58 0
-44 -70 0
-43 -70 0
-44 -69 0
-45 -65 0
-43 -73 0
-45 -71 0
-48 -73 0
-46 -73 0
-44 -79 0
-46 -82 0
-46 -84 0
-46 -79 0
-47 -88 0
-49 -89 0
-46 -91 0
-48 -88 0
-49 -96 0
-48 -93 0
-45 -98 0
-49 -98 0
-45 -104 0
-48 -105 0
-49 -103 0
-48 -100 0
-49 -108 0
-47 -111 0
-44 -111 0
-46 -110 0
-49 -114 0
-45 -117 0
-48 -119 0
-44 -114 0
-44 -122 0
-44 -120 0
-48 -122 0
-43 -123 0
-44 -134 0
-47 -139 0
-43 -138 0
-46 -140 0
-47 -146 0
-46 -141 0
-48 -147 0
-48 -143 0
-43 -153 0
-49 -151 0
-49 -150 0
-44 -150 0
-44 -161 0
-44 -158 0
-49 -159 0
-48 -156 0
-46 -168 0
-43 -166 0
-47 -168 0
-48 -168 0
-49 -173 0
-45 -171 0
-46 -170 0
-44 -173 0
-48 -179 0
-44 -179 0
-44 -177 0
-43 -180 0
-43 -184 0
-46 -189 0
-45 -184 0
-46 -188 0
-47 -194 0
-49 -194 0
-48 -193 0
-45 -195 0
-46 -204 0
-45 -209 0
-46 -207 0
-47 -209 0
-49 -217 0
-43 -215 0
-47 -215 0
-47 -217 0
-46 -224 0
-49 -218 0
-44 -220 0
-46 -220 0
-44 -228 0
-46 -226 0
-48 -226 0
-48 -230 0
-43 -234 0
-49 -232 0
-46 -232 0
-48 -235 0
-44 -245 0
-47 -245 0
-43 -239 0
-45 -245 0
-50 -59 0
-51 -59 0
-56 -62 0
-53 -62 0
-50 -66 0
-54 -68 0
-53 -70 0
-53 -64 0
-55 -75 0
-51 -75 0
-54 -77 0
-55 -71 0
-53 -84 0
-51 -79 0
-54 -79 0
-53 -78 0
-52 -87 0
-56 -90 0
-53 -85 0
-56 -86 0
-54 -92 0
-51 -95 0
-52 -94 0
-55 -98 0
-50 -99 0
-55 -101 0
-56 -105 0
-51 -105 0
-52 -110 0
-53 -106 0
-52 -107 0
-56 -108 0
-51 -116 0
-56 -116 0
-53 -118 0
-54 -117 0
-53 -125 0
-56 -124 0
-51 -126 0
-54 -125 0
-51 -136 0
-50 -134 0
-50 -136 0
-53 -134 0
-50 -143 0
-53 -147 0
-56 -147 0
-52 -146 0
-50 -151 0
-51 -153 0
-55 -152 0
-50 -149 0
-50 -158 0
-53 -158 0
-50 -157 0
-53 -160 0
-55 -171 0
-52 -170 0
-51 -173 0
-54 -173 0
-52 -176 0
-55 -176 0
-54 -181 0
-51 -179 0
-51 -183 0
-53 -184 0
-53 -187 0
-52 -187 0
-50 -193 0
-52 -195 0
-56 -195 0
-56 -190 0
-53 -200 0
-54 -202 0
-53 -202 0
-52 -203 0
-54 -205 0
-53 -204 0
-51 -210 0
-53 -207 0
-54 -214 0
-51 -213 0
-52 -211 0
-53 -211 0
-52 -222 0
-55 -218 0
-52 -218 0
-51 -219 0
-56 -230 0
-50 -229 0
-50 -227 0
-53 -229 0
-51 -236 0
-53 -237 0
-50 -235 0
-55 -232 0
-52 -243 0
-52 -242 0
-51 -240 0
-56 -245 0
-57 -67 0
-62 -65 0
-62 -66 0
-58 -65 0
-61 -74 0
-57 -74 0
-63 -72 0
-59 -74 0
-60 -78 0
-57 -84 0
-61 -78 0
-63 -81 0
-60 -90 0
-62 -90 0
-57 -89 0
-57 -87 0
-62 -97 0
-63 -95 0
-62 -94 0
-57 -95 0
-59 -101 0
-59 -100 0
-57 -105 0
-60 -99 0
-60 -112 0
-58 -110 0
-60 -110 0
-62 -111 0
-60 -118 0
-57 -114 0
-57 -117 0
-57 -118 0
-61 -125 0
-62 -125 0
-62 -122 0
-59 -124 0
-63 -129 0
-60 -133 0
-63 -133 0
-62 -127 0
-63 -137 0
-57 -138 0
-59 -134 0
-58 -136 0
-58 -144 0
-59 -147 0
-57 -143 0
-60 -145 0
-61 -154 0
-59 -153 0
-61 -149 0
-60 -148 0
-58 -156 0
-63 -160 0
-63 -161 0
-60 -158 0
-61 -166 0
-63 -165 0
-58 -164 0
-61 -165 0
-59 -173 0
-63 -171 0
-61 -175 0
-62 -174 0
-63 -180 0
-60 -179 0
-61 -176 0
-62 -180 0
-58 -189 0
-63 -188 0
-62 -187 0
-57 -189 0
-58 -192 0
-59 -191 0
-62 -194 0
-59 -192 0
-62 -202 0
-59 -199 0
-57 -201 0
-58 -199 0
-57 -206 0
-63 -206 0
-58 -209 0
-58 -206 0
-58 -211 0
-59 -213 0
-62 -217 0
-58 -214 0
-58 -222 0
-62 -221 0
-59 -220 0
-60 -224 0
-62 -237 0
-61 -235 0
-63 -236 0
-57 -233 0
-61 -244 0
-62 -239 0
-59 -245 0
-60 -240 0
-65 -77 0
-69 -76 0
-69 -75 0
-69 -72 0
-65 -84 0
-67 -82 0
-66 -83 0
-70 -79 0
-66 -90 0
-66 -86 0
-66 -85 0
-65 -90 0
-64 -105 0
-67 -99 0
-65 -103 0
-64 -101 0
-65 -111 0
-65 -112 0
-70 -107 0
-70 -110 0
-67 -119 0
-66 -118 0
-70 -113 0
-69 -119 0
-64 -128 0
-68 -130 0
-69 -133 0
-69 -127 0
-68 -134 0
-67 -138 0
-66 -139 0
-66 -138 0
-68 -146 0
-66 -142 0
-64 -142 0
-66 -144 0
-66 -154 0
-66 -151 0
-70 -149 0
-70 -151 0
-70 -161 0
-67 -161 0
-70 -156 0
-67 -155 0
-67 -168 0
-69 -163 0
-70 -162 0
-64 -166 0
-70 -175 0
-67 -169 0
-64 -172 0
-70 -173 0
-67 -181 0
-64 -182 0
-65 -177 0
-66 -178 0
-70 -186 0
-64 -188 0
-70 -188 0
-65 -183 0
-64 -191 0
-67 -192 0
-67 -195 0
-69 -195 0
-70 -200 0
-67 -202 0
-64 -203 0
-64 -200 0
-67 -209 0
-66 -207 0
-68 -208 0
-67 -205 0
-64 -215 0
-65 -211 0
-67 -217 0
-68 -214 0
-70 -221 0
-68 -223 0
-69 -223 0
-66 -222 0
-64 -227 0
-69 -231 0
-66 -227 0
-69 -229 0
-65 -233 0
-66 -235 0
-64 -237 0
-67 -232 0
-64 -243 0
-67 -243 0
-68 -239 0
-68 -240 0
-71 -81 0
-76 -81 0
-76 -83 0
-74 -81 0
-73 -85 0
-72 -90 0
-74 -90 0
-77 -90 0
-77 -92 0
-76 -92 0
-77 -96 0
-74 -92 0
-75 -104 0
-73 -104 0
-73 -99 0
-76 -102 0
-76 -107 0
-71 -109 0
-77 -107 0
-75 -109 0
-75 -113 0
-76 -113 0
-74 -114 0
-71 -114 0
-73 -120 0
-76 -124 0
-71 -120 0
-76 -121 0
-77 -129 0
-74 -130 0
-72 -132 0
-73 -128 0
-75 -140 0
-72 -137 0
-77 -134 0
-76 -139 0
-76 -151 0
-74 -152 0
-73 -150 0
-74 -149 0
-71 -158 0
-71 -157 0
-73 -158 0
-75 -161 0
-75 -168 0
-71 -167 0
-75 -164 0
-72 -167 0
-76 -170 0
-72 -169 0
-73 -170 0
-73 -173 0
-71 -180 0
-76 -176 0
-73 -180 0
-71 -176 0
-75 -184 0
-71 -184 0
-74 -185 0
-75 -189 0
-76 -192 0
-71 -190 0
-71 -193 0
-72 -192 0
-72 -197 0
-76 -198 0
-73 -202 0
-77 -201 0
-74 -205 0
-76 -210 0
-71 -207 0
-77 -207 0
-77 -214 0
-71 -213 0
-72 -211 0
-75 -211 0
-75 -225 0
-75 -227 0
-74 -229 0
-76 -230 0
-74 -238 0
-76 -232 0
-74 -235 0
-75 -234 0
-76 -244 0
-76 -239 0
-72 -240 0
-73 -241 0
-80 -87 0
-80 -90 0
-84 -85 0
-81 -87 0
-84 -95 0
-78 -95 0
-80 -93 0
-78 -92 0
-81 -104 0
-78 -105 0
-80 -100 0
-81 -100 0
-82 -116 0
-83 -115 0
-80 -119 0
-79 -117 0
-80 -121 0
-84 -124 0
-82 -121 0
-81 -125 0
-82 -127 0
-83 -133 0
-83 -130 0
-82 -130 0
-82 -134 0
-81 -138 0
-80 -134 0
-78 -135 0
-83 -147 0
-82 -143 0
-81 -143 0
-81 -147 0
-82 -153 0
-80 -152 0
-79 -148 0
-81 -150 0
-82 -159 0
-82 -156 0
-84 -161 0
-82 -158 0
-81 -162 0
-78 -166 0
-83 -166 0
-82 -164 0
-80 -170 0
-81 -171 0
-83 -175 0
-82 -173 0
-78 -180 0
-78 -182 0
-78 -176 0
-82 -182 0
-84 -189 0
-84 -187 0
-78 -189 0
-83 -187 0
-83 -191 0
-82 -191 0
-78 -196 0
-84 -194 0
-81 -203 0
-79 -201 0
-80 -203 0
-78 -201 0
-78 -210 0
-82 -209 0
-83 -206 0
-80 -209 0
-84 -214 0
-79 -211 0
-78 -213 0
-78 -215 0
-78 -222 0
-78 -220 0
-81 -219 0
-84 -220 0
-78 -229 0
-81 -226 0
-80 -228 0
-78 -230 0
-81 -236 0
-80 -236 0
-80 -234 0
-82 -236 0
-78 -240 0
-80 -245 0
-79 -239 0
-82 -245 0
-87 -92 0
-90 -97 0
-88 -92 0
-86 -92 0
-87 -101 0
-87 -102 0
-87 -105 0
-87 -104 0
-85 -112 0
-91 -108 0
-91 -110 0
-87 -111 0
-90 -119 0
-91 -116 0
-89 -115 0
-86 -115 0
-85 -123 0
-90 -121 0
-91 -120 0
-90 -123 0
-89 -130 0
-89 -129 0
-90 -131 0
-87 -132 0
-86 -139 0
-89 -136 0
-91 -136 0
-89 -139 0
-86 -145 0
-90 -142 0
-88 -144 0
-86 -144 0
-85 -148 0
-90 -149 0
-88 -151 0
-87 -148 0
-87 -157 0
-91 -161 0
-86 -157 0
-88 -158 0
-91 -166 0
-85 -168 0
-86 -165 0
-91 -164 0
-88 -172 0
-91 -172 0
-90 -172 0
-87 -169 0
-89 -182 0
-91 -176 0
-89 -177 0
-87 -177 0
-88 -188 0
-85 -184 0
-89 -184 0
-90 -183 0
-90 -196 0
-90 -195 0
-86 -196 0
-86 -192 0
-89 -198 0
-90 -199 0
-87 -198 0
-86 -200 0
-85 -210 0
-90 -207 0
-87 -207 0
-89 -208 0
-85 -212 0
-85 -215 0
-87 -215 0
-89 -213 0
-86 -218 0
-89 -222 0
-86 -224 0
-85 -220 0
-85 -229 0
-89 -227 0
-90 -225 0
-89 -230 0
-85 -234 0
-86 -235 0
-87 -236 0
-85 -233 0
-96 -104 0
-95 -104 0
-93 -102 0
-98 -105 0
-95 -106 0
-93 -107 0
-96 -111 0
-94 -109 0
-96 -117 0
-95 -118 0
-95 -117 0
-92 -115 0
-95 -122 0
-98 -126 0
-96 -123 0
-93 -124 0
-96 -129 0
-98 -130 0
-95 -130 0
-94 -131 0
-94 -135 0
-97 -136 0
-94 -139 0
-94 -138 0
-97 -144 0
-97 -142 0
-97 -143 0
-96 -144 0
-93 -155 0
-94 -157 0
-96 -159 0
-95 -156 0
-96 -163 0
-96 -167 0
-92 -167 0
-98 -167 0
-93 -171 0
-93 -173 0
-92 -175 0
-95 -175 0
-96 -176 0
-95 -176 0
-98 -177 0
-93 -178 0
-93 -185 0
-92 -185 0
-95 -187 0
-97 -185 0
-95 -194 0
-94 -191 0
-92 -196 0
-96 -194 0
-96 -203 0
-92 -200 0
-92 -201 0
-96 -198 0
-98 -205 0
-93 -204 0
-93 -208 0
-96 -204 0
-95 -211 0
-96 -216 0
-95 -215 0
-98 -213 0
-93 -222 0
-96 -219 0
-97 -224 0
-92 -221 0
-98 -228 0
-94 -231 0
-95 -228 0
-92 -227 0
-94 -235 0
-92 -233 0
-95 -232 0
-92 -235 0
-93 -241 0
-93 -243 0
-98 -239 0
-95 -244 0
-99 -108 0
-105 -106 0
-99 -109 0
-104 -106 0
-102 -119 0
-102 -113 0
-105 -114 0
-102 -115 0
-102 -123 0
-103 -122 0
-105 -120 0
-104 -124 0
-102 -128 0
-104 -128 0
-100 -127 0
-102 -133 0
-103 -139 0
-101 -135 0
-101 -136 0
-99 -134 0
-105 -145 0
-102 -147 0
-101 -146 0
-104 -146 0
-102 -151 0
-102 -154 0
-102 -153 0
-103 -152 0
-102 -156 0
-103 -158 0
-104 -156 0
-104 -155 0
-105 -167 0
-103 -167 0
-101 -164 0
-102 -167 0
-100 -174 0
-102 -173 0
-102 -169 0
-104 -174 0
-103 -188 0
-99 -189 0
-105 -185 0
-105 -188 0
-102 -197 0
-103 -203 0
-100 -197 0
-101 -199 0
-105 -209 0
-100 -206 0
-99 -204 0
-103 -207 0
-104 -212 0
-99 -215 0
-101 -212 0
-105 -211 0
-102 -221 0
-101 -223 0
-100 -219 0
-101 -219 0
-104 -227 0
-100 -230 0
-103 -227 0
-101 -228 0
-99 -236 0
-102 -238 0
-102 -234 0
-104 -232 0
-105 -239 0
-101 -241 0
-105 -244 0
-101 -239 0
-112 -116 0
-110 -119 0
-112 -113 0
-106 -115 0
-110 -123 0
-106 -121 0
-108 -125 0
-107 -121 0
-111 -129 0
-108 -132 0
-110 -129 0
-112 -127 0
-106 -138 0
-112 -135 0
-108 -134 0
-109 -134 0
-110 -142 0
-112 -142 0
-112 -145 0
-107 -146 0
-112 -148 0
-111 -150 0
-111 -149 0
-112 -152 0
-112 -163 0
-110 -163 0
-109 -166 0
-110 -164 0
-106 -175 0
-107 -175 0
-108 -175 0
-109 -175 0
-110 -182 0
-112 -178 0
-112 -179 0
-109 -176 0
-112 -188 0
-106 -189 0
-108 -184 0
-110 -189 0
-107 -193 0
-109 -195 0
-106 -190 0
-106 -194 0
-111 -198 0
-112 -202 0
-108 -197 0
-109 -198 0
-108 -207 0
-110 -206 0
-111 -210 0
-107 -205 0
-110 -217 0
-109 -217 0
-107 -217 0
-112 -216 0
-111 -222 0
-107 -223 0
-112 -222 0
-111 -220 0
-109 -231 0
-108 -230 0
-107 -231 0
-112 -229 0
-109 -237 0
-110 -233 0
-106 -234 0
-111 -232 0
-109 -241 0
-109 -239 0
-112 -245 0
-109 -245 0
-118 -125 0
-119 -125 0
-116 -126 0
-118 -121 0
-114 -131 0
-113 -129 0
-119 -132 0
-115 -129 0
-115 -138 0
-118 -134 0
-115 -136 0
-119 -136 0
-113 -145 0
-118 -142 0
-118 -141 0
-117 -142 0
-113 -167 0
-117 -166 0
-114 -167 0
-119 -162 0
-117 -173 0
-113 -172 0
-117 -172 0
-118 -174 0
-117 -188 0
-119 -189 0
-113 -189 0
-118 -188 0
-116 -196 0
-115 -190 0
-116 -192 0
-119 -194 0
-116 -197 0
-117 -203 0
-118 -198 0
-114 -203 0
-117 -207 0
-115 -206 0
-119 -205 0
-115 -207 0
-118 -212 0
-119 -212 0
-119 -217 0
-114 -214 0
-113 -224 0
-118 -222 0
-116 -218 0
-117 -218 0
-115 -228 0
-118 -228 0
-118 -231 0
-114 -231 0
-117 -238 0
-115 -232 0
-118 -237 0
-119 -233 0
-115 -243 0
-117 -241 0
-113 -245 0
-117 -239 0
-122 -127 0
-121 -128 0
-125 -129 0
-126 -127 0
-126 -140 0
-120 -136 0
-120 -134 0
-121 -136 0
-126 -152 0
-126 -149 0
-123 -150 0
-121 -148 0
-122 -156 0
-126 -157 0
-121 -157 0
-122 -161 0
-126 -166 0
-124 -168 0
-121 -167 0
-122 -168 0
-123 -171 0
-122 -170 0
-126 -174 0
-121 -169 0
-120 -176 0
-125 -181 0
-121 -181 0
-120 -181 0
-120 -188 0
-122 -188 0
-126 -185 0
-125 -183 0
-126 -192 0
-122 -190 0
-120 -193 0
-126 -196 0
-120 -200 0
-121 -197 0
-123 -198 0
-126 -203 0
-122 -213 0
-123 -213 0
-124 -217 0
-125 -211 0
-122 -224 0
-120 -224 0
-121 -219 0
-121 -223 0
-124 -230 0
-126 -231 0
-124 -226 0
-123 -226 0
-125 -238 0
-126 -236 0
-123 -236 0
-120 -236 0
-124 -241 0
-124 -244 0
-120 -244 0
-124 -243 0
-129 -136 0
-131 -136 0
-130 -137 0
-131 -137 0
-128 -141 0
-130 -144 0
-132 -147 0
-132 -141 0
-133 -150 0
-133 -152 0
-130 -154 0
-128 -151 0
-128 -160 0
-131 -155 0
-129 -155 0
-129 -157 0
-128 -168 0
-130 -163 0
-127 -164 0
-132 -164 0
-127 -174 0
-131 -169 0
-130 -172 0
-131 -170 0
-132 -178 0
-130 -179 0
-131 -180 0
-129 -180 0
-131 -184 0
-128 -187 0
-127 -185 0
-128 -184 0
-133 -196 0
-130 -190 0
-130 -196 0
-129 -190 0
-129 -203 0
-128 -199 0
-133 -197 0
-127 -203 0
-130 -205 0
-130 -209 0
-131 -208 0
-131 -210 0
-133 -215 0
-129 -213 0
-127 -211 0
-128 -212 0
-133 -218 0
-129 -218 0
-128 -224 0
-132 -221 0
-132 -239 0
-131 -243 0
-129 -243 0
-133 -239 0
-140 -144 0
-140 -146 0
-137 -144 0
-134 -141 0
-136 -159 0
-135 -157 0
-134 -155 0
-136 -161 0
-139 -163 0
-137 -165 0
-136 -165 0
-140 -168 0
-134 -171 0
-136 -172 0
-138 -171 0
-140 -174 0
-135 -182 0
-135 -178 0
-135 -176 0
-137 -182 0
-140 -185 0
-140 -188 0
-138 -185 0
-137 -185 0
-134 -195 0
-139 -194 0
-135 -191 0
-135 -190 0
-139 -200 0
-137 -203 0
-140 -199 0
-139 -197 0
-139 -216 0
-138 -213 0
-134 -213 0
-137 -216 0
-139 -220 0
-138 -220 0
-136 -218 0
-140 -223 0
-136 -227 0
-137 -227 0
-140 -231 0
-138 -226 0
-134 -235 0
-137 -237 0
-137 -233 0
-134 -232 0
-137 -242 0
-135 -239 0
-138 -241 0
-136 -240 0
-143 -150 0
-145 -151 0
-145 -152 0
-142 -154 0
-142 -161 0
-145 -158 0
-142 -155 0
-144 -160 0
-145 -168 0
-141 -165 0
-146 -166 0
-147 -164 0
-142 -169 0
-146 -173 0
-146 -172 0
-146 -170 0
-144 -181 0
-146 -182 0
-141 -182 0
-143 -176 0
-146 -188 0
-142 -185 0
-141 -184 0
-143 -186 0
-143 -194 0
-147 -194 0
-146 -193 0
-144 -195 0
-145 -198 0
-143 -200 0
-144 -202 0
-142 -202 0
-146 -205 0
-145 -205 0
-145 -206 0
-147 -207 0
-143 -216 0
-147 -214 0
-141 -216 0
-144 -216 0
-145 -224 0
-147 -223 0
-147 -220 0
-144 -224 0
-144 -225 0
-141 -230 0
-144 -229 0
-143 -225 0
-144 -238 0
-141 -234 0
-145 -238 0
-147 -238 0
-147 -245 0
-147 -240 0
-143 -243 0
-141 -240 0
-153 -156 0
-149 -155 0
-152 -159 0
-154 -161 0
-150 -168 0
-149 -164 0
-153 -165 0
-151 -164 0
-148 -175 0
-149 -170 0
-154 -175 0
-150 -169 0
-153 -178 0
-151 -179 0
-152 -177 0
-151 -180 0
-153 -187 0
-150 -186 0
-152 -183 0
-153 -188 0
-150 -193 0
-149 -194 0
-153 -195 0
-152 -191 0
-151 -203 0
-152 -201 0
-149 -198 0
-148 -198 0
-150 -207 0
-148 -208 0
-153 -207 0
-151 -209 0
-148 -212 0
-150 -211 0
-153 -211 0
-152 -213 0
-150 -219 0
-153 -224 0
-152 -221 0
-149 -222 0
-152 -231 0
-149 -225 0
-154 -226 0
-151 -226 0
-151 -234 0
-152 -237 0
-152 -235 0
-154 -236 0
-152 -241 0
-151 -242 0
-150 -241 0
-153 -241 0
-160 -165 0
-155 -168 0
-157 -162 0
-156 -166 0
-157 -172 0
-158 -174 0
-158 -173 0
-161 -170 0
-156 -177 0
-161 -182 0
-159 -178 0
-156 -176 0
-157 -189 0
-158 -185 0
-159 -189 0
-157 -184 0
-160 -194 0
-156 -196 0
-155 -194 0
-161 -190 0
-160 -208 0
-155 -206 0
-157 -207 0
-158 -205 0
-159 -217 0
-157 -211 0
-160 -212 0
-157 -212 0
-160 -237 0
-156 -237 0
-159 -236 0
-161 -232 0
-156 -239 0
-160 -245 0
-155 -244 0
-155 -243 0
-164 -171 0
-167 -171 0
-167 -169 0
-164 -170 0
-168 -182 0
-167 -181 0
-166 -182 0
-164 -178 0
-168 -190 0
-166 -194 0
-164 -191 0
-167 -192 0
-166 -208 0
-168 -210 0
-168 -204 0
-162 -204 0
-168 -214 0
-162 -213 0
-166 -216 0
-166 -213 0
-167 -222 0
-163 -222 0
-166 -220 0
-167 -224 0
-165 -231 0
-166 -225 0
-168 -229 0
-168 -230 0
-167 -236 0
-167 -232 0
-166 -232 0
-164 -235 0
-167 -245 0
-167 -244 0
-166 -241 0
-168 -239 0
-175 -176 0
-171 -180 0
-169 -182 0
-172 -176 0
-172 -188 0
-171 -189 0
-172 -183 0
-170 -184 0
-169 -192 0
-172 -191 0
-169 -190 0
-171 -196 0
-175 -197 0
-173 -203 0
-171 -203 0
-174 -203 0
-174 -204 0
-175 -207 0
-175 -209 0
-169 -210 0
-175 -211 0
-172 -214 0
-170 -212 0
-174 -216 0
-172 -218 0
-174 -220 0
-169 -219 0
-170 -220 0
-175 -229 0
-175 -226 0
-169 -230 0
-169 -228 0
-173 -232 0
-174 -233 0
-170 -235 0
-172 -234 0
-169 -245 0
-171 -241 0
-171 -242 0
-172 -242 0
-176 -184 0
-182 -184 0
-177 -189 0
-177 -185 0
-176 -191 0
-178 -195 0
-179 -193 0
-180 -192 0
-177 -203 0
-178 -197 0
-178 -202 0
-181 -199 0
-182 -204 0
-181 -208 0
-179 -205 0
-178 -208 0
-179 -211 0
-182 -213 0
-178 -215 0
-181 -213 0
-182 -224 0
-179 -219 0
-181 -223 0
-176 -218 0
-177 -231 0
-181 -229 0
-181 -231 0
-181 -225 0
-180 -234 0
-177 -232 0
-178 -237 0
-177 -233 0
-182 -240 0
-181 -242 0
-181 -240 0
-179 -245 0
-186 -194 0
-187 -190 0
-185 -191 0
-189 -194 0
-187 -201 0
-184 -200 0
-184 -201 0
-185 -199 0
-186 -209 0
-185 -205 0
-186 -204 0
-183 -208 0
-185 -211 0
-185 -214 0
-189 -217 0
-184 -212 0
-188 -222 0
-189 -222 0
-185 -224 0
-189 -224 0
-188 -228 0
-184 -228 0
-188 -229 0
-187 -229 0
-188 -233 0
-186 -237 0
-185 -236 0
-183 -233 0
-185 -240 0
-186 -241 0
-189 -244 0
-186 -242 0
-196 -201 0
-192 -201 0
-191 -199 0
-190 -198 0
-194 -206 0
-193 -205 0
-193 -210 0
-195 -206 0
-194 -215 0
-196 -216 0
-192 -214 0
-192 -215 0
-190 -222 0
-195 -223 0
-192 -224 0
-193 -221 0
-193 -238 0
-191 -233 0
-194 -237 0
-190 -236 0
-190 -243 0
-196 -245 0
-194 -240 0
-192 -240 0
-203 -206 0
-203 -207 0
-203 -204 0
-202 -209 0
-197 -216 0
-198 -213 0
-200 -215 0
-201 -217 0
-203 -222 0
-202 -221 0
-201 -224 0
-199 -219 0
-197 -231 0
-203 -231 0
-203 -229 0
-200 -227 0
-203 -233 0
-198 -236 0
-197 -232 0
-201 -233 0
-202 -245 0
-198 -241 0
-203 -242 0
-201 -243 0
-205 -215 0
-205 -213 0
-209 -215 0
-208 -216 0
-207 -221 0
-208 -218 0
-210 -223 0
-209 -221 0
-208 -229 0
-210 -229 0
-204 -230 0
-208 -226 0
-205 -233 0
-204 -232 0
-205 -238 0
-209 -232 0
-209 -240 0
-205 -239 0
-206 -241 0
-205 -240 0
-217 -219 0
-214 -222 0
-214 -219 0
-211 -223 0
-214 -231 0
-212 -229 0
-214 -229 0
-211 -229 0
-217 -236 0
-216 -236 0
-212 -233 0
-211 -233 0
-212 -242 0
-216 -239 0
-212 -239 0
-212 -241 0
-218 -231 0
-221 -228 0
-224 -226 0
-220 -229 0
-222 -238 0
-218 -233 0
-219 -236 0
-223 -237 0
-220 -240 0
-218 -242 0
-224 -243 0
-220 -241 0
-227 -238 0
-230 -234 0
-227 -237 0
-225 -237 0
-230 -244 0
-226 -244 0
-230 -241 0
-228 -239 0
-233 -244 0
-232 -240 0
-238 -240 0
-233 -245 0
